
Gurobi 9.5.0 (win64) logging started Sat Mar 26 13:51:48 2022

Set parameter LogFile to value "../results/logs/log_2022_03_26_13_51.csv_27_250.log"
Gurobi Optimizer version 9.5.0 build v9.5.0rc5 (win64)
Thread count: 6 physical cores, 12 logical processors, using up to 12 threads
Optimize a model with 8079 rows, 8078 columns and 369092 nonzeros
Model fingerprint: 0xb9247100
Variable types: 0 continuous, 8078 integer (8078 binary)
Coefficient statistics:
  Matrix range     [1e+00, 3e+01]
  Objective range  [1e+00, 1e+00]
  Bounds range     [1e+00, 1e+00]
  RHS range        [1e+00, 3e+02]
Found heuristic solution: objective -0.0000000
Presolve removed 4201 rows and 2843 columns
Presolve time: 1.00s
Presolved: 3878 rows, 5235 columns, 296387 nonzeros
Variable types: 0 continuous, 5235 integer (5166 binary)
Found heuristic solution: objective 9.0000000

Root relaxation: objective 1.909130e+03, 2139 iterations, 0.13 seconds (0.22 work units)

    Nodes    |    Current Node    |     Objective Bounds      |     Work
 Expl Unexpl |  Obj  Depth IntInf | Incumbent    BestBd   Gap | It/Node Time

     0     0 1909.13046    0  359    9.00000 1909.13046      -     -    1s
H    0     0                    1313.0000000 1909.13046  45.4%     -    2s
H    0     0                    1323.0000000 1909.13046  44.3%     -    2s
H    0     0                    1394.0000000 1909.13046  37.0%     -    2s
H    0     0                    1400.0000000 1909.13046  36.4%     -    2s
H    0     0                    1499.0000000 1878.62087  25.3%     -    2s
H    0     0                    1501.0000000 1878.62087  25.2%     -    2s
     0     0 1864.63112    0  547 1501.00000 1864.63112  24.2%     -    2s
H    0     0                    1566.0000000 1864.63112  19.1%     -    3s
     0     0 1864.62675    0  553 1566.00000 1864.62675  19.1%     -    3s
     0     0 1864.62675    0  568 1566.00000 1864.62675  19.1%     -    3s
     0     0 1864.62675    0  572 1566.00000 1864.62675  19.1%     -    3s
     0     0 1864.62675    0  580 1566.00000 1864.62675  19.1%     -    3s
H    0     0                    1583.0000000 1864.62675  17.8%     -    5s
H    0     0                    1594.0000000 1864.62675  17.0%     -    5s
H    0     0                    1597.0000000 1864.62675  16.8%     -    5s
H    0     0                    1661.0000000 1864.62675  12.3%     -    5s
     0     0 1858.45888    0  666 1661.00000 1858.45888  11.9%     -    5s
H    0     0                    1664.0000000 1858.45888  11.7%     -    5s
H    0     0                    1693.0000000 1851.10203  9.34%     -    6s
     0     0 1851.10203    0  687 1693.00000 1851.10203  9.34%     -    6s
     0     0 1849.44986    0  720 1693.00000 1849.44986  9.24%     -    6s
     0     0 1848.81169    0  712 1693.00000 1848.81169  9.20%     -    6s
     0     0 1848.66966    0  738 1693.00000 1848.66966  9.19%     -    6s
     0     0 1848.64367    0  742 1693.00000 1848.64367  9.19%     -    6s
     0     0 1848.64353    0  744 1693.00000 1848.64353  9.19%     -    6s
H    0     0                    1701.0000000 1848.64353  8.68%     -    9s
H    0     0                    1732.0000000 1848.64353  6.73%     -    9s
H    0     0                    1735.0000000 1848.64353  6.55%     -    9s
H    0     0                    1740.0000000 1848.64353  6.24%     -    9s
H    0     0                    1743.0000000 1842.50631  5.71%     -   10s
     0     0 1842.50631    0  809 1743.00000 1842.50631  5.71%     -   10s
H    0     0                    1745.0000000 1842.50631  5.59%     -   10s
H    0     0                    1755.0000000 1842.50631  4.99%     -   10s
     0     0 1839.65576    0  823 1755.00000 1839.65576  4.82%     -   10s
     0     0 1838.61357    0  840 1755.00000 1838.61357  4.76%     -   11s
     0     0 1838.35348    0  849 1755.00000 1838.35348  4.75%     -   11s
     0     0 1838.22265    0  871 1755.00000 1838.22265  4.74%     -   11s
     0     0 1838.15368    0  872 1755.00000 1838.15368  4.74%     -   11s
     0     0 1838.13205    0  868 1755.00000 1838.13205  4.74%     -   11s
     0     0 1838.12493    0  879 1755.00000 1838.12493  4.74%     -   11s
     0     0 1835.05894    0  876 1755.00000 1835.05894  4.56%     -   14s
H    0     0                    1756.0000000 1835.05894  4.50%     -   14s
     0     0 1833.82885    0  856 1756.00000 1833.82885  4.43%     -   15s
     0     0 1833.11477    0  889 1756.00000 1833.11477  4.39%     -   15s
     0     0 1832.90261    0  881 1756.00000 1832.90261  4.38%     -   15s
     0     0 1832.80129    0  910 1756.00000 1832.80129  4.37%     -   15s
     0     0 1832.74244    0  926 1756.00000 1832.74244  4.37%     -   16s
     0     0 1832.72582    0  934 1756.00000 1832.72582  4.37%     -   16s
H    0     0                    1759.0000000 1832.72582  4.19%     -   18s
H    0     0                    1760.0000000 1832.72582  4.13%     -   18s
H    0     0                    1765.0000000 1832.72582  3.84%     -   18s
     0     0 1829.87930    0  861 1765.00000 1829.87930  3.68%     -   18s
H    0     0                    1777.0000000 1829.87930  2.98%     -   19s
     0     0 1829.01872    0  892 1777.00000 1829.01872  2.93%     -   19s
     0     0 1828.70671    0  937 1777.00000 1828.70671  2.91%     -   19s
     0     0 1828.50349    0  925 1777.00000 1828.50349  2.90%     -   20s
     0     0 1828.40345    0  945 1777.00000 1828.40345  2.89%     -   20s
     0     0 1828.36667    0  937 1777.00000 1828.36667  2.89%     -   20s
     0     0 1828.34432    0  944 1777.00000 1828.34432  2.89%     -   20s
     0     0 1826.73890    0  933 1777.00000 1826.73890  2.80%     -   22s
H    0     0                    1780.0000000 1826.26705  2.60%     -   22s
     0     0 1826.26705    0  974 1780.00000 1826.26705  2.60%     -   22s
     0     0 1825.99292    0  972 1780.00000 1825.99292  2.58%     -   23s
     0     0 1825.88753    0  987 1780.00000 1825.88753  2.58%     -   23s
     0     0 1825.80772    0 1004 1780.00000 1825.80772  2.57%     -   23s
     0     0 1825.74637    0 1017 1780.00000 1825.74637  2.57%     -   23s
     0     0 1825.71805    0 1008 1780.00000 1825.71805  2.57%     -   23s
H    0     0                    1781.0000000 1824.45333  2.44%     -   25s
     0     0 1824.45333    0  943 1781.00000 1824.45333  2.44%     -   25s
     0     0 1824.20498    0  994 1781.00000 1824.20498  2.43%     -   26s
     0     0 1824.03183    0  988 1781.00000 1824.03183  2.42%     -   26s
     0     0 1823.93306    0 1012 1781.00000 1823.93306  2.41%     -   26s
     0     0 1823.87967    0 1007 1781.00000 1823.87967  2.41%     -   26s
     0     0 1823.82629    0 1017 1781.00000 1823.82629  2.40%     -   27s
     0     0 1823.80575    0 1018 1781.00000 1823.80575  2.40%     -   27s
     0     0 1823.35139    0  986 1781.00000 1823.35139  2.38%     -   28s
     0     0 1823.05428    0  969 1781.00000 1823.05428  2.36%     -   28s
     0     0 1822.85941    0  999 1781.00000 1822.85941  2.35%     -   28s
     0     0 1822.77693    0 1002 1781.00000 1822.77693  2.35%     -   28s
     0     0 1822.73546    0 1004 1781.00000 1822.73546  2.34%     -   28s
     0     0 1822.71202    0 1008 1781.00000 1822.71202  2.34%     -   29s
     0     0 1821.95981    0  962 1781.00000 1821.95981  2.30%     -   31s
H    0     0                    1785.0000000 1821.95981  2.07%     -   31s
     0     0 1821.75916    0  989 1785.00000 1821.75916  2.06%     -   32s
     0     0 1821.67835    0 1001 1785.00000 1821.67835  2.05%     -   32s
     0     0 1821.63228    0 1017 1785.00000 1821.63228  2.05%     -   32s
     0     0 1821.59898    0 1029 1785.00000 1821.59898  2.05%     -   32s
     0     0 1821.26299    0 1009 1785.00000 1821.26299  2.03%     -   33s
     0     0 1821.07895    0 1027 1785.00000 1821.07895  2.02%     -   33s
     0     0 1820.90609    0 1028 1785.00000 1820.90609  2.01%     -   34s
     0     0 1820.82991    0 1022 1785.00000 1820.82991  2.01%     -   34s
     0     0 1820.79260    0 1041 1785.00000 1820.79260  2.01%     -   34s
     0     0 1820.76708    0 1046 1785.00000 1820.76708  2.00%     -   34s
     0     0 1820.54846    0 1009 1785.00000 1820.54846  1.99%     -   35s
     0     0 1820.46574    0 1003 1785.00000 1820.46574  1.99%     -   35s
     0     0 1820.40733    0 1017 1785.00000 1820.40733  1.98%     -   36s
     0     0 1820.37837    0 1026 1785.00000 1820.37837  1.98%     -   36s
     0     0 1820.04821    0  999 1785.00000 1820.04821  1.96%     -   38s
     0     0 1819.85227    0 1046 1785.00000 1819.85227  1.95%     -   38s
     0     0 1819.79728    0 1035 1785.00000 1819.79728  1.95%     -   39s
     0     0 1819.77273    0 1035 1785.00000 1819.77273  1.95%     -   39s
     0     0 1819.53415    0 1019 1785.00000 1819.53415  1.93%     -   39s
     0     0 1819.40742    0 1014 1785.00000 1819.40742  1.93%     -   40s
     0     0 1819.36796    0 1026 1785.00000 1819.36796  1.93%     -   40s
     0     0 1819.34143    0 1022 1785.00000 1819.34143  1.92%     -   40s
     0     0 1819.21019    0 1020 1785.00000 1819.21019  1.92%     -   41s
     0     0 1819.21019    0 1007 1785.00000 1819.21019  1.92%     -   41s
